(set-logic HORN)
(set-info :source |
    Benchmark: C_VC
    Output by Princess (http://www.philipp.ruemmer.org/princess.shtml)
|)
(set-info :status unsat)
;===============================================================================
; Encoding of Heap sorts and operations
;-------------------------------------------------------------------------------
(define-sort Addr() Int)
(declare-datatypes ((HeapObject 0) (list 0))
                   (((O_Int (getInt Int)) (O_Addr (getAddr Addr)) (O_list (getlist list)) (defObj))
                   ((list (key Int) (next Addr)))))
(declare-datatypes ((AllocResHeap 0) (Heap 0))
                   (((AllocResHeap   (newHeap Heap) (newAddr Addr)))
                    ((HeapCtor (HeapSize Int)
                               (HeapContents (Array Addr HeapObject))))))
(define-fun nullAddr  () Addr 0)
(define-fun defHeapObject    () HeapObject defObj)
(define-fun valid     ((h Heap) (p Addr)) Bool
  (and (>= (HeapSize h) p) (> p 0)))
(define-fun emptyHeap () Heap (
  HeapCtor 0 (( as const (Array Addr HeapObject)) defHeapObject)))
(define-fun read ((h Heap) (p Addr)) HeapObject
  (ite (valid h p)
       (select (HeapContents h) p)
       defHeapObject))
(define-fun write ((h Heap) (p Addr) (o HeapObject)) Heap
  (ite (valid h p)
       (HeapCtor (HeapSize h) (store (HeapContents h) p o))
       h))
(define-fun alloc   ((h Heap) (o HeapObject)) AllocResHeap
  (AllocResHeap (HeapCtor (+ 1 (HeapSize h))
                    (store (HeapContents h) (+ 1 (HeapSize h)) o))
          (+ 1 (HeapSize h))))

;===============================================================================
(declare-fun inv_main13 (Heap Addr Int Addr Addr Addr Int) Bool)
(declare-fun inv_main14 (Heap Addr Int Addr Addr Addr Int) Bool)
(declare-fun inv_main17 (Heap Addr Int Addr Addr Addr Int Addr) Bool)
(declare-fun inv_main23 (Heap Addr Int Addr Addr Addr Int) Bool)
(declare-fun inv_main27 (Heap Addr Int Addr Addr Addr Int) Bool)
(declare-fun inv_main28 (Heap Addr Int Addr Addr Addr Int) Bool)
(declare-fun inv_main31 (Heap Addr Int Addr Addr Addr Int Addr) Bool)
(declare-fun inv_main37 (Heap Addr Int Addr Addr Addr Int) Bool)
(declare-fun inv_main4 (Heap Addr Int Addr Addr) Bool)
(declare-fun inv_main41 (Heap Addr Int Addr Addr Addr Int) Bool)
(declare-fun inv_main42 (Heap Addr Int Addr Addr Addr Int) Bool)
(declare-fun inv_main45 (Heap Addr Int Addr Addr Addr Int Addr) Bool)
(declare-fun inv_main51 (Heap Addr Int Addr Addr Addr Int) Bool)
(declare-fun inv_main55 (Heap Addr Int Addr Addr Addr Int) Bool)
(declare-fun inv_main56 (Heap Addr Int Addr Addr Addr Int) Bool)
(declare-fun inv_main59 (Heap Addr Int Addr Addr Addr Int Addr) Bool)
(declare-fun inv_main61 (Heap Addr Int Addr Addr) Bool)
(declare-fun inv_main65 (Heap Addr Int Addr Addr Addr Int) Bool)
(declare-fun inv_main68 (Heap Addr Int Addr Addr Addr Int) Bool)
(declare-fun inv_main73 (Heap Addr Int Addr Addr) Bool)
(declare-fun inv_main9 (Heap Addr Int Addr Addr Addr Int) Bool)
(assert (forall ((var0 Addr) (var1 Heap) (var2 Addr) (var3 Addr) (var4 Addr) (var5 Int)) (or (not (and (= var1 emptyHeap) (= var3 var0))) (inv_main4 var1 var3 var5 var2 var4))))
(assert (forall ((var0 Addr) (var1 Int) (var2 Addr) (var3 Addr) (var4 Heap) (var5 Int) (var6 Addr)) (or (not (and (inv_main65 var4 var3 var5 var2 var0 var6 var1) (= var6 nullAddr))) (inv_main61 var4 var3 var5 var2 var6))))
(assert (forall ((var0 Int) (var1 Addr) (var2 Int) (var3 Addr) (var4 Heap) (var5 Heap) (var6 Addr) (var7 Addr) (var8 Int) (var9 Addr) (var10 Addr) (var11 Int) (var12 Addr) (var13 Int) (var14 Addr) (var15 Int) (var16 Int) (var17 Addr) (var18 Addr) (var19 Int) (var20 Addr) (var21 Addr) (var22 Heap)) (or (not (and (inv_main65 var5 var17 var19 var18 var1 var9 var2) (and (and (= var15 0) (and (not (= var9 nullAddr)) (and (and (and (and (and (and (and (= var22 var5) (= var20 var17)) (= var13 var19)) (= var6 var18)) (= var14 var1)) (= var3 var9)) (= var16 var2)) (= var8 (key (getlist (read var5 var9))))))) (and (and (and (and (and (and (and (= var4 var22) (= var21 var20)) (= var0 var13)) (= var7 var6)) (= var12 var14)) (= var10 var3)) (= var11 var16)) (or (and (not (= var8 var16)) (= var15 1)) (and (= var8 var16) (= var15 0))))))) (inv_main61 var4 var21 var0 var7 var10))))
(assert (forall ((var0 Addr) (var1 Addr) (var2 Int) (var3 Addr) (var4 Int) (var5 Int) (var6 Heap) (var7 Int) (var8 Addr) (var9 Addr) (var10 Heap) (var11 Addr) (var12 list) (var13 Addr) (var14 Addr) (var15 Addr) (var16 Addr) (var17 Int) (var18 Int) (var19 Addr) (var20 Addr) (var21 Addr) (var22 Heap)) (or (not (and (inv_main41 var6 var15 var17 var16 var3 var19 var7) (and (and (and (and (and (and (and (and (= var22 (newHeap (alloc var10 (O_list var12)))) (= var9 var20)) (= var18 var5)) (= var21 var8)) (= var11 var14)) (= var13 var8)) (= var2 3)) (= var0 (newAddr (alloc var10 (O_list var12))))) (and (and (and (and (and (and (= var10 (write var6 var19 (O_list (list (key (getlist (read var6 var19))) nullAddr)))) (= var1 var15)) (= var5 var17)) (= var8 var16)) (= var14 var3)) (= var20 var19)) (= var4 var7))))) (inv_main51 var22 var9 var18 var21 var11 var0 var2))))
(assert (forall ((var0 Addr) (var1 Addr) (var2 Int) (var3 Addr) (var4 Addr) (var5 Heap) (var6 Int) (var7 Addr) (var8 Int) (var9 Heap) (var10 Addr) (var11 Addr) (var12 Addr) (var13 Int) (var14 list) (var15 Addr) (var16 Addr) (var17 Int) (var18 Addr) (var19 Addr) (var20 Int) (var21 Addr) (var22 Addr) (var23 Heap)) (or (not (and (inv_main45 var5 var15 var17 var16 var3 var21 var6 var4) (and (and (and (and (and (and (and (and (= var23 (newHeap (alloc var9 (O_list var14)))) (= var18 var11)) (= var2 var8)) (= var0 var22)) (= var1 var12)) (= var19 var22)) (= var13 3)) (= var7 (newAddr (alloc var9 (O_list var14))))) (and (and (and (and (and (and (= var9 (write var5 var21 (O_list (list (key (getlist (read var5 var21))) var4)))) (= var10 var15)) (= var8 var17)) (= var22 var16)) (= var12 var3)) (= var11 var21)) (= var20 var6))))) (inv_main51 var23 var18 var2 var0 var1 var7 var13))))
(assert (forall ((var0 Addr) (var1 Heap) (var2 Heap) (var3 Int) (var4 Addr) (var5 Int) (var6 Addr) (var7 Addr) (var8 Addr) (var9 Int) (var10 Int) (var11 Addr) (var12 Addr) (var13 Addr)) (or (not (and (inv_main37 var2 var6 var9 var7 var0 var11 var3) (and (= var8 nullAddr) (and (and (and (and (and (and (= var1 (write var2 var11 (O_list (list var3 (next (getlist (read var2 var11))))))) (= var8 var6)) (= var10 var9)) (= var4 var7)) (= var12 var0)) (= var13 var11)) (= var5 var3))))) (inv_main41 var1 var8 var10 var4 var12 var13 var5))))
(assert (forall ((var0 list) (var1 Addr) (var2 Int) (var3 Addr) (var4 Addr) (var5 Addr) (var6 Addr) (var7 Heap) (var8 Addr) (var9 Int) (var10 Addr) (var11 Heap) (var12 Addr) (var13 Addr) (var14 Int) (var15 Int) (var16 Heap) (var17 Addr) (var18 Addr) (var19 Addr) (var20 Int) (var21 Addr) (var22 Int)) (or (not (and (inv_main27 var7 var17 var20 var18 var4 var21 var9) (and (and (and (and (and (and (and (and (= var16 (newHeap (alloc var11 (O_list var0)))) (= var19 var10)) (= var14 var22)) (= var5 var3)) (= var13 var6)) (= var1 var3)) (= var15 1)) (= var8 (newAddr (alloc var11 (O_list var0))))) (and (and (and (and (and (and (= var11 (write var7 var21 (O_list (list (key (getlist (read var7 var21))) nullAddr)))) (= var12 var17)) (= var22 var20)) (= var3 var18)) (= var6 var4)) (= var10 var21)) (= var2 var9))))) (inv_main37 var16 var19 var14 var5 var13 var8 var15))))
(assert (forall ((var0 Int) (var1 Int) (var2 Addr) (var3 Addr) (var4 Addr) (var5 Heap) (var6 Addr) (var7 Int) (var8 Int) (var9 Addr) (var10 list) (var11 Heap) (var12 Addr) (var13 Addr) (var14 Addr) (var15 Addr) (var16 Addr) (var17 Addr) (var18 Int) (var19 Int) (var20 Addr) (var21 Heap) (var22 Addr) (var23 Addr)) (or (not (and (inv_main31 var5 var16 var19 var17 var4 var22 var8 var13) (and (and (and (and (and (and (and (and (= var21 (newHeap (alloc var11 (O_list var10)))) (= var12 var20)) (= var0 var1)) (= var6 var23)) (= var14 var2)) (= var9 var23)) (= var7 1)) (= var15 (newAddr (alloc var11 (O_list var10))))) (and (and (and (and (and (and (= var11 (write var5 var22 (O_list (list (key (getlist (read var5 var22))) var13)))) (= var3 var16)) (= var1 var19)) (= var23 var17)) (= var2 var4)) (= var20 var22)) (= var18 var8))))) (inv_main37 var21 var12 var0 var6 var14 var15 var7))))
(assert (forall ((var0 Addr) (var1 Int) (var2 Addr) (var3 Heap) (var4 Addr) (var5 Int) (var6 Heap) (var7 Addr) (var8 Addr) (var9 Int) (var10 Addr) (var11 Addr) (var12 Int) (var13 Addr)) (or (not (and (inv_main23 var3 var7 var9 var8 var2 var11 var5) (and (not (= var13 nullAddr)) (and (and (and (and (and (and (= var6 (write var3 var11 (O_list (list var5 (next (getlist (read var3 var11))))))) (= var13 var7)) (= var12 var9)) (= var4 var8)) (= var0 var2)) (= var10 var11)) (= var1 var5))))) (inv_main28 var6 var13 var12 var4 var0 var10 var1))))
(assert (forall ((var0 Addr) (var1 Addr) (var2 Addr) (var3 Heap) (var4 Int) (var5 Addr) (var6 Heap) (var7 Int) (var8 Int) (var9 Addr) (var10 Addr) (var11 Addr) (var12 Int) (var13 Addr)) (or (not (and (inv_main51 var6 var10 var12 var11 var5 var1 var8) (and (not (= var0 nullAddr)) (and (and (and (and (and (and (= var3 (write var6 var1 (O_list (list var8 (next (getlist (read var6 var1))))))) (= var0 var10)) (= var4 var12)) (= var13 var11)) (= var9 var5)) (= var2 var1)) (= var7 var8))))) (inv_main56 var3 var0 var4 var13 var9 var2 var7))))
(assert (forall ((var0 Addr) (var1 Addr) (var2 Addr) (var3 Heap) (var4 Addr) (var5 Addr) (var6 Int) (var7 Heap) (var8 Addr) (var9 Addr) (var10 Int) (var11 Int) (var12 Addr) (var13 list)) (or (not (and (inv_main4 var3 var8 var10 var9 var1) (and (and (and (and (and (and (and (= var7 (newHeap (alloc var3 (O_list var13)))) (= var12 var8)) (= var11 var10)) (= var4 var9)) (= var2 var1)) (= var0 var9)) (= var6 2)) (= var5 (newAddr (alloc var3 (O_list var13))))))) (inv_main9 var7 var12 var11 var4 var2 var5 var6))))
(assert (forall ((var0 Int) (var1 Addr) (var2 Addr) (var3 Heap) (var4 Addr) (var5 Addr) (var6 Heap) (var7 Int) (var8 Addr) (var9 Addr) (var10 Addr) (var11 Int) (var12 Int) (var13 Addr)) (or (not (and (inv_main14 var3 var8 var11 var9 var2 var13 var12) (and (and (and (and (and (and (= var6 (write var3 var13 (O_list (list var12 (next (getlist (read var3 var13))))))) (= var5 var8)) (= var0 var11)) (= var1 var9)) (= var4 var2)) (= var10 var13)) (= var7 var12)))) (inv_main17 var6 var5 var0 var1 var4 var10 var7 var5))))
(assert (forall ((var0 Addr) (var1 Int) (var2 Heap) (var3 Addr) (var4 Addr) (var5 Addr) (var6 Heap) (var7 Int) (var8 Addr) (var9 Addr) (var10 Addr) (var11 Int) (var12 Addr) (var13 Int) (var14 Addr)) (or (not (and (inv_main68 var2 var9 var11 var10 var0 var3 var1) (and (and (and (and (and (and (and (= var6 var2) (= var14 var9)) (= var13 var11)) (= var5 var10)) (= var8 var0)) (= var12 var3)) (= var7 var1)) (= var4 (next (getlist (read var2 var3))))))) (inv_main65 var6 var14 var13 var5 var8 var4 var7))))
(assert (forall ((var0 Addr) (var1 Addr) (var2 Int) (var3 Addr) (var4 Heap) (var5 Int) (var6 Addr) (var7 Heap) (var8 Int) (var9 Addr) (var10 Addr) (var11 Addr) (var12 Int) (var13 Addr)) (or (not (and (inv_main55 var4 var10 var12 var11 var3 var0 var5) (and (and (and (and (and (and (= var7 (write var4 var0 (O_list (list (key (getlist (read var4 var0))) nullAddr)))) (= var6 var10)) (= var8 var12)) (= var1 var11)) (= var9 var3)) (= var13 var0)) (= var2 var5)))) (inv_main65 var7 var13 var8 var1 var9 var13 2))))
(assert (forall ((var0 Addr) (var1 Int) (var2 Addr) (var3 Addr) (var4 Heap) (var5 Int) (var6 Addr) (var7 Addr) (var8 Addr) (var9 Addr) (var10 Addr) (var11 Int) (var12 Addr) (var13 Int) (var14 Heap)) (or (not (and (inv_main59 var4 var9 var11 var10 var3 var0 var5 var6) (and (and (and (and (and (and (= var14 (write var4 var0 (O_list (list (key (getlist (read var4 var0))) var6)))) (= var8 var9)) (= var1 var11)) (= var2 var10)) (= var12 var3)) (= var7 var0)) (= var13 var5)))) (inv_main65 var14 var7 var1 var2 var12 var7 2))))
(assert (forall ((var0 Heap) (var1 Addr) (var2 Addr) (var3 Int) (var4 Heap) (var5 Int) (var6 Addr) (var7 Addr) (var8 Int) (var9 Addr) (var10 Addr) (var11 Int) (var12 Addr) (var13 Addr)) (or (not (and (inv_main37 var4 var9 var11 var10 var2 var12 var5) (and (not (= var6 nullAddr)) (and (and (and (and (and (and (= var0 (write var4 var12 (O_list (list var5 (next (getlist (read var4 var12))))))) (= var6 var9)) (= var8 var11)) (= var1 var10)) (= var7 var2)) (= var13 var12)) (= var3 var5))))) (inv_main42 var0 var6 var8 var1 var7 var13 var3))))
(assert (forall ((var0 Addr) (var1 Addr) (var2 Int) (var3 Addr) (var4 Heap) (var5 Addr) (var6 Int) (var7 Addr) (var8 Int) (var9 Heap) (var10 Addr) (var11 Addr) (var12 Int) (var13 Addr)) (or (not (and (inv_main56 var4 var10 var12 var11 var3 var0 var6) (and (and (and (and (and (and (= var9 (write var4 var0 (O_list (list var6 (next (getlist (read var4 var0))))))) (= var1 var10)) (= var2 var12)) (= var7 var11)) (= var5 var3)) (= var13 var0)) (= var8 var6)))) (inv_main59 var9 var1 var2 var7 var5 var13 var8 var1))))
(assert (forall ((var0 Heap) (var1 Addr) (var2 Int) (var3 Heap) (var4 Int) (var5 Addr) (var6 Addr) (var7 Addr) (var8 Addr) (var9 Int) (var10 Addr) (var11 Addr) (var12 Addr) (var13 Int)) (or (not (and (inv_main42 var3 var7 var9 var8 var1 var10 var4) (and (and (and (and (and (and (= var0 (write var3 var10 (O_list (list var4 (next (getlist (read var3 var10))))))) (= var12 var7)) (= var2 var9)) (= var5 var8)) (= var11 var1)) (= var6 var10)) (= var13 var4)))) (inv_main45 var0 var12 var2 var5 var11 var6 var13 var12))))
(assert (forall ((var0 Addr) (var1 Int) (var2 Addr) (var3 Int) (var4 Addr) (var5 Heap) (var6 Int) (var7 Addr) (var8 Int) (var9 Addr) (var10 Int) (var11 Heap) (var12 Int) (var13 Addr) (var14 Int) (var15 Addr) (var16 Addr) (var17 Int) (var18 Addr) (var19 Addr) (var20 Addr) (var21 Addr) (var22 Heap)) (or (not (and (inv_main65 var5 var15 var17 var16 var2 var9 var3) (and (and (not (= var6 0)) (and (not (= var9 nullAddr)) (and (and (and (and (and (and (and (= var22 var5) (= var19 var15)) (= var12 var17)) (= var7 var16)) (= var13 var2)) (= var4 var9)) (= var14 var3)) (= var8 (key (getlist (read var5 var9))))))) (and (and (and (and (and (and (and (= var11 var22) (= var0 var19)) (= var1 var12)) (= var21 var7)) (= var18 var13)) (= var20 var4)) (= var10 var14)) (or (and (not (= var8 var14)) (= var6 1)) (and (= var8 var14) (= var6 0))))))) (inv_main68 var11 var0 var1 var21 var18 var20 var10))))
(assert (forall ((var0 Addr) (var1 list) (var2 Addr) (var3 Addr) (var4 Heap) (var5 Heap) (var6 Addr) (var7 Int) (var8 Int) (var9 Addr) (var10 Addr) (var11 Addr) (var12 Addr) (var13 Addr) (var14 Addr) (var15 Addr) (var16 Int) (var17 Addr) (var18 Int) (var19 Int) (var20 Int) (var21 Heap) (var22 Addr)) (or (not (and (inv_main13 var4 var14 var16 var15 var2 var22 var19) (and (and (and (and (and (and (and (and (= var5 (newHeap (alloc var21 (O_list var1)))) (= var9 var3)) (= var8 var20)) (= var12 var17)) (= var10 var0)) (= var6 var17)) (= var18 5)) (= var13 (newAddr (alloc var21 (O_list var1))))) (and (and (and (and (and (and (= var21 (write var4 var22 (O_list (list (key (getlist (read var4 var22))) nullAddr)))) (= var11 var14)) (= var20 var16)) (= var17 var15)) (= var0 var2)) (= var3 var22)) (= var7 var19))))) (inv_main23 var5 var9 var8 var12 var10 var13 var18))))
(assert (forall ((var0 Addr) (var1 Addr) (var2 Addr) (var3 list) (var4 Addr) (var5 Addr) (var6 Heap) (var7 Heap) (var8 Addr) (var9 Addr) (var10 Int) (var11 Addr) (var12 Addr) (var13 Int) (var14 Int) (var15 Addr) (var16 Addr) (var17 Int) (var18 Int) (var19 Addr) (var20 Addr) (var21 Int) (var22 Heap) (var23 Addr)) (or (not (and (inv_main17 var6 var15 var17 var16 var4 var23 var21 var0) (and (and (and (and (and (and (and (and (= var7 (newHeap (alloc var22 (O_list var3)))) (= var1 var19)) (= var10 var14)) (= var2 var20)) (= var12 var8)) (= var11 var20)) (= var18 5)) (= var5 (newAddr (alloc var22 (O_list var3))))) (and (and (and (and (and (and (= var22 (write var6 var23 (O_list (list (key (getlist (read var6 var23))) var0)))) (= var9 var15)) (= var14 var17)) (= var20 var16)) (= var8 var4)) (= var19 var23)) (= var13 var21))))) (inv_main23 var7 var1 var10 var2 var12 var5 var18))))
(assert (forall ((var0 Addr) (var1 Int) (var2 Addr) (var3 Heap) (var4 Int) (var5 Int) (var6 Addr) (var7 Addr) (var8 Addr) (var9 Addr) (var10 Int) (var11 Addr) (var12 Addr) (var13 Heap)) (or (not (and (inv_main28 var3 var8 var10 var9 var2 var11 var5) (and (and (and (and (and (and (= var13 (write var3 var11 (O_list (list var5 (next (getlist (read var3 var11))))))) (= var7 var8)) (= var4 var10)) (= var6 var9)) (= var0 var2)) (= var12 var11)) (= var1 var5)))) (inv_main31 var13 var7 var4 var6 var0 var12 var1 var7))))
(assert (forall ((var0 Addr) (var1 Addr) (var2 Addr) (var3 Addr) (var4 Heap) (var5 Addr) (var6 Heap) (var7 Int) (var8 Addr) (var9 Addr) (var10 Int) (var11 Int) (var12 Int) (var13 Addr)) (or (not (and (inv_main9 var4 var8 var11 var9 var3 var13 var12) (and (not (= var0 nullAddr)) (and (and (and (and (and (and (= var6 (write var4 var13 (O_list (list var12 (next (getlist (read var4 var13))))))) (= var0 var8)) (= var10 var11)) (= var5 var9)) (= var2 var3)) (= var1 var13)) (= var7 var12))))) (inv_main14 var6 var0 var10 var5 var2 var1 var7))))
(assert (forall ((var0 Addr) (var1 Int) (var2 Addr) (var3 Addr) (var4 Addr) (var5 Heap) (var6 Int) (var7 Addr) (var8 Addr) (var9 Int) (var10 Addr) (var11 Int) (var12 Heap) (var13 Addr)) (or (not (and (inv_main23 var5 var7 var9 var8 var2 var13 var6) (and (= var0 nullAddr) (and (and (and (and (and (and (= var12 (write var5 var13 (O_list (list var6 (next (getlist (read var5 var13))))))) (= var0 var7)) (= var1 var9)) (= var10 var8)) (= var4 var2)) (= var3 var13)) (= var11 var6))))) (inv_main27 var12 var0 var1 var10 var4 var3 var11))))
(assert (forall ((var0 Int) (var1 Addr) (var2 Heap) (var3 Addr) (var4 Addr) (var5 Heap) (var6 Addr) (var7 Addr) (var8 Addr) (var9 Int) (var10 Int) (var11 Addr) (var12 Int) (var13 Addr)) (or (not (and (inv_main9 var2 var7 var9 var8 var1 var13 var12) (and (= var4 nullAddr) (and (and (and (and (and (and (= var5 (write var2 var13 (O_list (list var12 (next (getlist (read var2 var13))))))) (= var4 var7)) (= var0 var9)) (= var3 var8)) (= var11 var1)) (= var6 var13)) (= var10 var12))))) (inv_main13 var5 var4 var0 var3 var11 var6 var10))))
(assert (forall ((var0 Addr) (var1 Addr) (var2 Addr) (var3 Heap) (var4 Int)) (or (not (and (inv_main61 var3 var2 var4 var1 var0) (not (= var2 nullAddr)))) (inv_main73 var3 var2 var4 var1 var0))))
(assert (forall ((var0 Addr) (var1 Addr) (var2 Addr) (var3 Int) (var4 Heap) (var5 Addr) (var6 Addr) (var7 Addr) (var8 Addr) (var9 Addr) (var10 Heap) (var11 Heap) (var12 Addr) (var13 Addr) (var14 Int) (var15 Int) (var16 Addr)) (or (not (and (inv_main73 var4 var12 var15 var13 var2) (and (not (= var8 nullAddr)) (and (and (and (and (and (and (= var10 var4) (= var0 var12)) (= var14 var15)) (= var1 var13)) (= var6 var2)) (= var5 (next (getlist (read var4 var12))))) (and (and (and (and (and (= var11 (write var10 var0 defObj)) (= var9 var0)) (= var3 var14)) (= var7 var1)) (= var16 var6)) (= var8 var5)))))) (inv_main73 var11 var8 var3 var7 var16))))
(assert (forall ((var0 Addr) (var1 Heap) (var2 Addr) (var3 Heap) (var4 Int) (var5 Addr) (var6 Int) (var7 Addr) (var8 Addr) (var9 Addr) (var10 Addr) (var11 Int) (var12 Int) (var13 Addr)) (or (not (and (inv_main51 var3 var9 var11 var10 var2 var0 var4) (and (= var8 nullAddr) (and (and (and (and (and (and (= var1 (write var3 var0 (O_list (list var4 (next (getlist (read var3 var0))))))) (= var8 var9)) (= var12 var11)) (= var13 var10)) (= var5 var2)) (= var7 var0)) (= var6 var4))))) (inv_main55 var1 var8 var12 var13 var5 var7 var6))))
(assert (forall ((var0 Addr) (var1 Addr) (var2 Addr) (var3 Heap) (var4 Int) (var5 Int) (var6 Addr)) (not (and (inv_main9 var3 var2 var4 var1 var0 var6 var5) (not (is-O_list (read var3 var6)))))))
(assert (forall ((var0 Addr) (var1 Addr) (var2 Addr) (var3 Heap) (var4 Int) (var5 Int) (var6 Addr)) (not (and (inv_main13 var3 var2 var4 var1 var0 var6 var5) (not (is-O_list (read var3 var6)))))))
(assert (forall ((var0 Addr) (var1 Addr) (var2 Addr) (var3 Heap) (var4 Int) (var5 Int) (var6 Addr)) (not (and (inv_main14 var3 var2 var4 var1 var0 var6 var5) (not (is-O_list (read var3 var6)))))))
(assert (forall ((var0 Addr) (var1 Addr) (var2 Addr) (var3 Addr) (var4 Heap) (var5 Int) (var6 Int) (var7 Addr)) (not (and (inv_main17 var4 var3 var5 var2 var1 var7 var6 var0) (not (is-O_list (read var4 var7)))))))
(assert (forall ((var0 Addr) (var1 Addr) (var2 Addr) (var3 Heap) (var4 Int) (var5 Int) (var6 Addr)) (not (and (inv_main23 var3 var2 var4 var1 var0 var6 var5) (not (is-O_list (read var3 var6)))))))
(assert (forall ((var0 Addr) (var1 Addr) (var2 Addr) (var3 Heap) (var4 Int) (var5 Int) (var6 Addr)) (not (and (inv_main27 var3 var2 var4 var1 var0 var6 var5) (not (is-O_list (read var3 var6)))))))
(assert (forall ((var0 Addr) (var1 Addr) (var2 Addr) (var3 Heap) (var4 Int) (var5 Int) (var6 Addr)) (not (and (inv_main28 var3 var2 var4 var1 var0 var6 var5) (not (is-O_list (read var3 var6)))))))
(assert (forall ((var0 Addr) (var1 Addr) (var2 Addr) (var3 Addr) (var4 Heap) (var5 Int) (var6 Int) (var7 Addr)) (not (and (inv_main31 var4 var3 var5 var2 var1 var7 var6 var0) (not (is-O_list (read var4 var7)))))))
(assert (forall ((var0 Addr) (var1 Addr) (var2 Addr) (var3 Heap) (var4 Int) (var5 Int) (var6 Addr)) (not (and (inv_main37 var3 var2 var5 var1 var0 var6 var4) (not (is-O_list (read var3 var6)))))))
(assert (forall ((var0 Addr) (var1 Addr) (var2 Addr) (var3 Heap) (var4 Int) (var5 Int) (var6 Addr)) (not (and (inv_main41 var3 var2 var5 var1 var0 var6 var4) (not (is-O_list (read var3 var6)))))))
(assert (forall ((var0 Addr) (var1 Addr) (var2 Addr) (var3 Heap) (var4 Int) (var5 Int) (var6 Addr)) (not (and (inv_main42 var3 var2 var5 var1 var0 var6 var4) (not (is-O_list (read var3 var6)))))))
(assert (forall ((var0 Addr) (var1 Addr) (var2 Addr) (var3 Addr) (var4 Heap) (var5 Int) (var6 Int) (var7 Addr)) (not (and (inv_main45 var4 var3 var6 var2 var0 var7 var5 var1) (not (is-O_list (read var4 var7)))))))
(assert (forall ((var0 Addr) (var1 Addr) (var2 Addr) (var3 Addr) (var4 Heap) (var5 Int) (var6 Int)) (not (and (inv_main51 var4 var3 var5 var2 var1 var0 var6) (not (is-O_list (read var4 var0)))))))
(assert (forall ((var0 Addr) (var1 Addr) (var2 Addr) (var3 Addr) (var4 Heap) (var5 Int) (var6 Int)) (not (and (inv_main55 var4 var3 var5 var2 var1 var0 var6) (not (is-O_list (read var4 var0)))))))
(assert (forall ((var0 Addr) (var1 Addr) (var2 Addr) (var3 Addr) (var4 Heap) (var5 Int) (var6 Int)) (not (and (inv_main56 var4 var3 var5 var2 var1 var0 var6) (not (is-O_list (read var4 var0)))))))
(assert (forall ((var0 Addr) (var1 Addr) (var2 Addr) (var3 Addr) (var4 Addr) (var5 Heap) (var6 Int) (var7 Int)) (not (and (inv_main59 var5 var4 var6 var3 var2 var1 var7 var0) (not (is-O_list (read var5 var1)))))))
(assert (forall ((var0 Addr) (var1 Int) (var2 Addr) (var3 Addr) (var4 Heap) (var5 Int) (var6 Addr)) (not (and (inv_main65 var4 var3 var5 var2 var0 var6 var1) (and (not (= var6 nullAddr)) (not (is-O_list (read var4 var6))))))))
(assert (forall ((var0 Addr) (var1 Int) (var2 Addr) (var3 Addr) (var4 Heap) (var5 Int) (var6 Addr)) (not (and (inv_main68 var4 var3 var5 var2 var0 var6 var1) (not (is-O_list (read var4 var6)))))))
(assert (forall ((var0 Addr) (var1 Addr) (var2 Addr) (var3 Heap) (var4 Int)) (not (and (inv_main61 var3 var2 var4 var1 var0) (not (is-O_list (read var3 var0)))))))
(assert (forall ((var0 Addr) (var1 Addr) (var2 Addr) (var3 Heap) (var4 Int)) (not (and (inv_main61 var3 var2 var4 var1 var0) (not (= (key (getlist (read var3 var0))) 1))))))
(assert (forall ((var0 Addr) (var1 Addr) (var2 Addr) (var3 Heap) (var4 Int)) (not (and (inv_main73 var3 var2 var4 var1 var0) (not (is-O_list (read var3 var2)))))))
(check-sat)
